16:47:33 INFO: starting simulation...
16:47:33 INFO: num_compartments: 3
16:47:33 INFO: num_products: 3
16:47:33 INFO: num_destinations: 2
16:47:33 INFO: capacity_compartments: [810. 843. 821.]
16:47:33 INFO: size_package: [20. 19. 21.]
16:47:33 INFO: demand: [array([14., 22., 23.]), array([ 7., 15., 10.])]
16:47:33 INFO: simulation end
16:47:33 INFO: getting data from instance...
16:47:33 INFO: SimpleTruckLoadingProblem
16:47:33 INFO: Academic license - for non-commercial use only - expires 2021-08-08
16:47:33 INFO: Using license file C:\Users\54498\gurobi.lic
16:47:33 INFO: Changed value of parameter MIPgap to 0.001
16:47:33 INFO:    Prev: 0.0001  Min: 0.0  Max: inf  Default: 0.0001
16:47:33 INFO: Changed value of parameter TimeLimit to 5.0
16:47:33 INFO:    Prev: inf  Min: 0.0  Max: inf  Default: inf
16:47:33 INFO: Parameter OutputFlag unchanged
16:47:33 INFO:    Value: 1  Min: 0  Max: 1  Default: 1
16:47:33 INFO: Changed value of parameter LogFile to ./logs/gurobi.log
16:47:33 INFO:    Prev:   Default: 
16:47:33 INFO: Gurobi Optimizer version 9.1.2 build v9.1.2rc0 (win64)
16:47:33 INFO: Thread count: 4 physical cores, 8 logical processors, using up to 8 threads
16:47:33 INFO: Optimize a model with 9 rows, 19 columns and 42 nonzeros
16:47:33 INFO: Model fingerprint: 0x93b5510f
16:47:33 INFO: Variable types: 1 continuous, 18 integer (0 binary)
16:47:33 INFO: Coefficient statistics:
16:47:33 INFO:   Matrix range     [1e+00, 2e+01]
16:47:33 INFO:   Objective range  [1e+00, 1e+00]
16:47:33 INFO:   Bounds range     [0e+00, 0e+00]
16:47:33 INFO:   RHS range        [8e+02, 8e+02]
16:47:33 INFO: Found heuristic solution: objective -0.0000000
16:47:33 INFO: Presolve time: 0.00s
16:47:33 INFO: Presolved: 9 rows, 19 columns, 42 nonzeros
16:47:33 INFO: Variable types: 1 continuous, 18 integer (0 binary)
16:47:33 INFO: 
16:47:33 INFO: Root relaxation: objective 1.362335e+00, 13 iterations, 0.00 seconds
16:47:33 INFO: 
16:47:33 INFO:     Nodes    |    Current Node    |     Objective Bounds      |     Work
16:47:33 INFO:  Expl Unexpl |  Obj  Depth IntInf | Incumbent    BestBd   Gap | It/Node Time
16:47:33 INFO: 
16:47:33 INFO:      0     0    1.36233    0    8   -0.00000    1.36233      -     -    0s
16:47:33 INFO: H    0     0                       1.2142857    1.36233  12.2%     -    0s
16:47:33 INFO: H    0     0                       1.2272727    1.36233  11.0%     -    0s
16:47:33 INFO: H    0     0                       1.2857143    1.36233  5.96%     -    0s
16:47:33 INFO: H    0     0                       1.3000000    1.34847  3.73%     -    0s
16:47:33 INFO:      0     0    1.34847    0    8    1.30000    1.34847  3.73%     -    0s
16:47:33 INFO: H    0     0                       1.3043478    1.34847  3.38%     -    0s
16:47:33 INFO:      0     0    1.34175    0    8    1.30435    1.34175  2.87%     -    0s
16:47:33 INFO: H    0     0                       1.3181818    1.34175  1.79%     -    0s
16:47:33 INFO:      0     0    1.33912    0    8    1.31818    1.33912  1.59%     -    0s
16:47:33 INFO:      0     0    1.33912    0    8    1.31818    1.33912  1.59%     -    0s
16:47:33 INFO:      0     0    1.33912    0    7    1.31818    1.33912  1.59%     -    0s
16:47:33 INFO:      0     2    1.33912    0    7    1.31818    1.33912  1.59%     -    0s
16:47:33 INFO: 
16:47:33 INFO: Cutting planes:
16:47:33 INFO:   Gomory: 2
16:47:33 INFO:   MIR: 13
16:47:33 INFO:   StrongCG: 1
16:47:33 INFO:   Inf proof: 1
16:47:33 INFO: 
16:47:33 INFO: Explored 6400 nodes (9045 simplex iterations) in 0.15 seconds
16:47:33 INFO: Thread count was 8 (of 8 available processors)
16:47:33 INFO: 
16:47:33 INFO: Solution count 7: 1.31818 1.30435 1.3 ... -0
16:47:33 INFO: 
16:47:33 INFO: Optimal solution found (tolerance 1.00e-03)
16:47:33 INFO: Best objective 1.318181818182e+00, best bound 1.318181818182e+00, gap 0.0000%
16:47:33 INFO: SimpleTruckLoadingProblem
16:47:33 INFO: Changed value of parameter MIPgap to 0.001
16:47:33 INFO:    Prev: 0.0001  Min: 0.0  Max: inf  Default: 0.0001
16:47:33 INFO: Changed value of parameter TimeLimit to 5.0
16:47:33 INFO:    Prev: inf  Min: 0.0  Max: inf  Default: inf
16:47:33 INFO: Parameter OutputFlag unchanged
16:47:33 INFO:    Value: 1  Min: 0  Max: 1  Default: 1
16:47:33 INFO: Changed value of parameter LogFile to ./logs/gurobi.log
16:47:33 INFO:    Prev:   Default: 
16:47:33 INFO: Gurobi Optimizer version 9.1.2 build v9.1.2rc0 (win64)
16:47:33 INFO: Thread count: 4 physical cores, 8 logical processors, using up to 8 threads
16:47:33 INFO: Optimize a model with 9 rows, 19 columns and 42 nonzeros
16:47:33 INFO: Model fingerprint: 0x06446dc6
16:47:33 INFO: Variable types: 1 continuous, 18 integer (0 binary)
16:47:33 INFO: Coefficient statistics:
16:47:33 INFO:   Matrix range     [1e+00, 2e+01]
16:47:33 INFO:   Objective range  [1e+00, 1e+00]
16:47:33 INFO:   Bounds range     [0e+00, 0e+00]
16:47:33 INFO:   RHS range        [4e+02, 4e+02]
16:47:33 INFO: Found heuristic solution: objective -0.0000000
16:47:33 INFO: Presolve time: 0.00s
16:47:33 INFO: Presolved: 9 rows, 19 columns, 42 nonzeros
16:47:33 INFO: Variable types: 1 continuous, 18 integer (0 binary)
16:47:33 INFO: 
16:47:33 INFO: Root relaxation: objective 6.806167e-01, 16 iterations, 0.00 seconds
16:47:33 INFO: 
16:47:33 INFO:     Nodes    |    Current Node    |     Objective Bounds      |     Work
16:47:33 INFO:  Expl Unexpl |  Obj  Depth IntInf | Incumbent    BestBd   Gap | It/Node Time
16:47:33 INFO: 
16:47:33 INFO:      0     0    0.68062    0    8   -0.00000    0.68062      -     -    0s
16:47:33 INFO: H    0     0                       0.6363636    0.68062  6.95%     -    0s
16:47:33 INFO: H    0     0                       0.6428571    0.68062  5.87%     -    0s
16:47:33 INFO:      0     0    0.66448    0    4    0.64286    0.66448  3.36%     -    0s
16:47:33 INFO:      0     0    0.65475    0    5    0.64286    0.65475  1.85%     -    0s
16:47:33 INFO:      0     0    0.65427    0    5    0.64286    0.65427  1.77%     -    0s
16:47:33 INFO:      0     0    0.65427    0    6    0.64286    0.65427  1.77%     -    0s
16:47:33 INFO:      0     0    0.65427    0    9    0.64286    0.65427  1.77%     -    0s
16:47:33 INFO:      0     0    0.65427    0   10    0.64286    0.65427  1.77%     -    0s
16:47:33 INFO:      0     0    0.64505    0   10    0.64286    0.64505  0.34%     -    0s
16:47:33 INFO: 
16:47:33 INFO: Cutting planes:
16:47:33 INFO:   Gomory: 1
16:47:33 INFO:   MIR: 12
16:47:33 INFO: 
16:47:33 INFO: Explored 1 nodes (41 simplex iterations) in 0.03 seconds
16:47:33 INFO: Thread count was 8 (of 8 available processors)
16:47:33 INFO: 
16:47:33 INFO: Solution count 3: 0.642857 0.636364 -0 
16:47:33 INFO: No other solutions better than 0.642857
16:47:33 INFO: 
16:47:33 INFO: Optimal solution found (tolerance 1.00e-03)
16:47:33 INFO: Best objective 6.428571428571e-01, best bound 6.428571428571e-01, gap 0.0000%
16:47:33 INFO: SimpleTruckLoadingProblem
16:47:33 INFO: Changed value of parameter MIPgap to 0.001
16:47:33 INFO:    Prev: 0.0001  Min: 0.0  Max: inf  Default: 0.0001
16:47:33 INFO: Changed value of parameter TimeLimit to 5.0
16:47:33 INFO:    Prev: inf  Min: 0.0  Max: inf  Default: inf
16:47:33 INFO: Parameter OutputFlag unchanged
16:47:33 INFO:    Value: 1  Min: 0  Max: 1  Default: 1
16:47:33 INFO: Changed value of parameter LogFile to ./logs/gurobi.log
16:47:33 INFO:    Prev:   Default: 
16:47:33 INFO: Gurobi Optimizer version 9.1.2 build v9.1.2rc0 (win64)
16:47:33 INFO: Thread count: 4 physical cores, 8 logical processors, using up to 8 threads
16:47:33 INFO: Optimize a model with 9 rows, 19 columns and 42 nonzeros
16:47:33 INFO: Model fingerprint: 0x3e78e4ff
16:47:33 INFO: Variable types: 1 continuous, 18 integer (0 binary)
16:47:33 INFO: Coefficient statistics:
16:47:33 INFO:   Matrix range     [1e+00, 2e+01]
16:47:33 INFO:   Objective range  [1e+00, 1e+00]
16:47:33 INFO:   Bounds range     [0e+00, 0e+00]
16:47:33 INFO:   RHS range        [3e+02, 3e+02]
16:47:33 INFO: Found heuristic solution: objective -0.0000000
16:47:33 INFO: Presolve time: 0.00s
16:47:33 INFO: Presolved: 9 rows, 19 columns, 42 nonzeros
16:47:33 INFO: Variable types: 1 continuous, 18 integer (0 binary)
16:47:33 INFO: 
16:47:33 INFO: Root relaxation: objective 4.537445e-01, 19 iterations, 0.00 seconds
16:47:33 INFO: 
16:47:33 INFO:     Nodes    |    Current Node    |     Objective Bounds      |     Work
16:47:33 INFO:  Expl Unexpl |  Obj  Depth IntInf | Incumbent    BestBd   Gap | It/Node Time
16:47:33 INFO: 
16:47:33 INFO:      0     0    0.45374    0    8   -0.00000    0.45374      -     -    0s
16:47:33 INFO: H    0     0                       0.4090909    0.45374  10.9%     -    0s
16:47:33 INFO: H    0     0                       0.4285714    0.45374  5.87%     -    0s
16:47:33 INFO:      0     0    0.43352    0    7    0.42857    0.43352  1.16%     -    0s
16:47:33 INFO: H    0     0                       0.4285714    0.43352  1.16%     -    0s
16:47:33 INFO:      0     0    0.42958    0   10    0.42857    0.42958  0.23%     -    0s
16:47:33 INFO:      0     0    0.42958    0    8    0.42857    0.42958  0.23%     -    0s
16:47:33 INFO:      0     0    0.42958    0    9    0.42857    0.42958  0.23%     -    0s
16:47:33 INFO:      0     0    0.42958    0    9    0.42857    0.42958  0.23%     -    0s
16:47:33 INFO:      0     0    0.42958    0    7    0.42857    0.42958  0.23%     -    0s
16:47:33 INFO:      0     0    0.42958    0   10    0.42857    0.42958  0.23%     -    0s
16:47:33 INFO:      0     0    0.42958    0    7    0.42857    0.42958  0.23%     -    0s
16:47:33 INFO:      0     0    0.42958    0    9    0.42857    0.42958  0.23%     -    0s
16:47:33 INFO:      0     0    0.42958    0    9    0.42857    0.42958  0.23%     -    0s
16:47:33 INFO:      0     2    0.42958    0    9    0.42857    0.42958  0.23%     -    0s
16:47:33 INFO: 
16:47:33 INFO: Cutting planes:
16:47:33 INFO:   Gomory: 5
16:47:33 INFO:   MIR: 15
16:47:33 INFO:   StrongCG: 4
16:47:33 INFO:   Inf proof: 1
16:47:33 INFO:   Mod-K: 1
16:47:33 INFO: 
16:47:33 INFO: Explored 5706 nodes (8835 simplex iterations) in 0.13 seconds
16:47:33 INFO: Thread count was 8 (of 8 available processors)
16:47:33 INFO: 
16:47:33 INFO: Solution count 4: 0.428571 0.428571 0.409091 -0 
16:47:33 INFO: No other solutions better than 0.428571
16:47:33 INFO: 
16:47:33 INFO: Optimal solution found (tolerance 1.00e-03)
16:47:33 INFO: Best objective 4.285714287143e-01, best bound 4.285714287143e-01, gap 0.0000%
16:47:33 INFO: SimpleTruckLoadingProblem
16:47:33 INFO: Changed value of parameter MIPgap to 0.001
16:47:33 INFO:    Prev: 0.0001  Min: 0.0  Max: inf  Default: 0.0001
16:47:33 INFO: Changed value of parameter TimeLimit to 5.0
16:47:33 INFO:    Prev: inf  Min: 0.0  Max: inf  Default: inf
16:47:33 INFO: Parameter OutputFlag unchanged
16:47:33 INFO:    Value: 1  Min: 0  Max: 1  Default: 1
16:47:33 INFO: Changed value of parameter LogFile to ./logs/gurobi.log
16:47:33 INFO:    Prev:   Default: 
16:47:33 INFO: Gurobi Optimizer version 9.1.2 build v9.1.2rc0 (win64)
16:47:33 INFO: Thread count: 4 physical cores, 8 logical processors, using up to 8 threads
16:47:33 INFO: Optimize a model with 9 rows, 19 columns and 42 nonzeros
16:47:33 INFO: Model fingerprint: 0x93b5510f
16:47:33 INFO: Variable types: 1 continuous, 18 integer (0 binary)
16:47:33 INFO: Coefficient statistics:
16:47:33 INFO:   Matrix range     [1e+00, 2e+01]
16:47:33 INFO:   Objective range  [1e+00, 1e+00]
16:47:33 INFO:   Bounds range     [0e+00, 0e+00]
16:47:33 INFO:   RHS range        [8e+02, 8e+02]
16:47:33 INFO: Found heuristic solution: objective -0.0000000
16:47:33 INFO: Presolve time: 0.00s
16:47:33 INFO: Presolved: 9 rows, 19 columns, 42 nonzeros
16:47:33 INFO: Variable types: 1 continuous, 18 integer (0 binary)
16:47:33 INFO: 
16:47:33 INFO: Root relaxation: objective 1.362335e+00, 13 iterations, 0.00 seconds
16:47:33 INFO: 
16:47:33 INFO:     Nodes    |    Current Node    |     Objective Bounds      |     Work
16:47:33 INFO:  Expl Unexpl |  Obj  Depth IntInf | Incumbent    BestBd   Gap | It/Node Time
16:47:33 INFO: 
16:47:33 INFO:      0     0    1.36233    0    8   -0.00000    1.36233      -     -    0s
16:47:33 INFO: H    0     0                       1.2142857    1.36233  12.2%     -    0s
16:47:33 INFO: H    0     0                       1.2272727    1.36233  11.0%     -    0s
16:47:33 INFO: H    0     0                       1.2857143    1.36233  5.96%     -    0s
16:47:33 INFO: H    0     0                       1.3000000    1.34847  3.73%     -    0s
16:47:33 INFO:      0     0    1.34847    0    8    1.30000    1.34847  3.73%     -    0s
16:47:33 INFO: H    0     0                       1.3043478    1.34847  3.38%     -    0s
16:47:33 INFO:      0     0    1.34175    0    8    1.30435    1.34175  2.87%     -    0s
16:47:33 INFO: H    0     0                       1.3181818    1.34175  1.79%     -    0s
16:47:33 INFO:      0     0    1.33912    0    8    1.31818    1.33912  1.59%     -    0s
16:47:33 INFO:      0     0    1.33912    0    8    1.31818    1.33912  1.59%     -    0s
16:47:33 INFO:      0     0    1.33912    0    7    1.31818    1.33912  1.59%     -    0s
16:47:33 INFO:      0     2    1.33912    0    7    1.31818    1.33912  1.59%     -    0s
16:47:34 INFO: 
16:47:34 INFO: Cutting planes:
16:47:34 INFO:   Gomory: 2
16:47:34 INFO:   MIR: 13
16:47:34 INFO:   StrongCG: 1
16:47:34 INFO:   Inf proof: 1
16:47:34 INFO: 
16:47:34 INFO: Explored 6400 nodes (9045 simplex iterations) in 0.14 seconds
16:47:34 INFO: Thread count was 8 (of 8 available processors)
16:47:34 INFO: 
16:47:34 INFO: Solution count 7: 1.31818 1.30435 1.3 ... -0
16:47:34 INFO: 
16:47:34 INFO: Optimal solution found (tolerance 1.00e-03)
16:47:34 INFO: Best objective 1.318181818182e+00, best bound 1.318181818182e+00, gap 0.0000%
16:47:34 INFO: SimpleTruckLoadingProblem
16:47:34 INFO: Changed value of parameter MIPgap to 0.001
16:47:34 INFO:    Prev: 0.0001  Min: 0.0  Max: inf  Default: 0.0001
16:47:34 INFO: Changed value of parameter TimeLimit to 5.0
16:47:34 INFO:    Prev: inf  Min: 0.0  Max: inf  Default: inf
16:47:34 INFO: Parameter OutputFlag unchanged
16:47:34 INFO:    Value: 1  Min: 0  Max: 1  Default: 1
16:47:34 INFO: Changed value of parameter LogFile to ./logs/gurobi.log
16:47:34 INFO:    Prev:   Default: 
16:47:34 INFO: Gurobi Optimizer version 9.1.2 build v9.1.2rc0 (win64)
16:47:34 INFO: Thread count: 4 physical cores, 8 logical processors, using up to 8 threads
16:47:34 INFO: Optimize a model with 9 rows, 19 columns and 42 nonzeros
16:47:34 INFO: Model fingerprint: 0x32e6b38a
16:47:34 INFO: Variable types: 1 continuous, 18 integer (0 binary)
16:47:34 INFO: Coefficient statistics:
16:47:34 INFO:   Matrix range     [1e+00, 4e+01]
16:47:34 INFO:   Objective range  [1e+00, 1e+00]
16:47:34 INFO:   Bounds range     [0e+00, 0e+00]
16:47:34 INFO:   RHS range        [8e+02, 8e+02]
16:47:34 INFO: Found heuristic solution: objective -0.0000000
16:47:34 INFO: Presolve time: 0.00s
16:47:34 INFO: Presolved: 9 rows, 19 columns, 42 nonzeros
16:47:34 INFO: Variable types: 1 continuous, 18 integer (0 binary)
16:47:34 INFO: 
16:47:34 INFO: Root relaxation: objective 1.210372e+00, 13 iterations, 0.00 seconds
16:47:34 INFO: 
16:47:34 INFO:     Nodes    |    Current Node    |     Objective Bounds      |     Work
16:47:34 INFO:  Expl Unexpl |  Obj  Depth IntInf | Incumbent    BestBd   Gap | It/Node Time
16:47:34 INFO: 
16:47:34 INFO:      0     0    1.21037    0    8   -0.00000    1.21037      -     -    0s
16:47:34 INFO: H    0     0                       1.1304348    1.21037  7.07%     -    0s
16:47:34 INFO: H    0     0                       1.1333333    1.21037  6.80%     -    0s
16:47:34 INFO:      0     0    1.21037    0   12    1.13333    1.21037  6.80%     -    0s
16:47:34 INFO: H    0     0                       1.1739130    1.21037  3.11%     -    0s
16:47:34 INFO: H    0     0                       1.1818182    1.21037  2.42%     -    0s
16:47:34 INFO:      0     0    1.21011    0   12    1.18182    1.21011  2.39%     -    0s
16:47:34 INFO:      0     0    1.19846    0    6    1.18182    1.19846  1.41%     -    0s
16:47:34 INFO:      0     0    1.19846    0    8    1.18182    1.19846  1.41%     -    0s
16:47:34 INFO:      0     0    1.19692    0    8    1.18182    1.19692  1.28%     -    0s
16:47:34 INFO:      0     0    1.19692    0    8    1.18182    1.19692  1.28%     -    0s
16:47:34 INFO:      0     0    1.19616    0    9    1.18182    1.19616  1.21%     -    0s
16:47:34 INFO: H    0     0                       1.1818182    1.19616  1.21%     -    0s
16:47:34 INFO:      0     0    1.19616    0    8    1.18182    1.19616  1.21%     -    0s
16:47:34 INFO:      0     0    1.19616    0    6    1.18182    1.19616  1.21%     -    0s
16:47:34 INFO:      0     0    1.19616    0   10    1.18182    1.19616  1.21%     -    0s
16:47:34 INFO:      0     0    1.19616    0    9    1.18182    1.19616  1.21%     -    0s
16:47:34 INFO:      0     0    1.19616    0    9    1.18182    1.19616  1.21%     -    0s
16:47:34 INFO:      0     0    1.19616    0    9    1.18182    1.19616  1.21%     -    0s
16:47:34 INFO:      0     2    1.19616    0    9    1.18182    1.19616  1.21%     -    0s
16:47:34 INFO: 
16:47:34 INFO: Cutting planes:
16:47:34 INFO:   Gomory: 1
16:47:34 INFO:   MIR: 12
16:47:34 INFO:   StrongCG: 1
16:47:34 INFO:   Inf proof: 1
16:47:34 INFO:   Mod-K: 1
16:47:34 INFO: 
16:47:34 INFO: Explored 291 nodes (644 simplex iterations) in 0.06 seconds
16:47:34 INFO: Thread count was 8 (of 8 available processors)
16:47:34 INFO: 
16:47:34 INFO: Solution count 6: 1.18182 1.18182 1.17391 ... -0
16:47:34 INFO: 
16:47:34 INFO: Optimal solution found (tolerance 1.00e-03)
16:47:34 INFO: Best objective 1.181818195233e+00, best bound 1.181818195233e+00, gap 0.0000%
16:47:34 INFO: SimpleTruckLoadingProblem
16:47:34 INFO: Changed value of parameter MIPgap to 0.001
16:47:34 INFO:    Prev: 0.0001  Min: 0.0  Max: inf  Default: 0.0001
16:47:34 INFO: Changed value of parameter TimeLimit to 5.0
16:47:34 INFO:    Prev: inf  Min: 0.0  Max: inf  Default: inf
16:47:34 INFO: Parameter OutputFlag unchanged
16:47:34 INFO:    Value: 1  Min: 0  Max: 1  Default: 1
16:47:34 INFO: Changed value of parameter LogFile to ./logs/gurobi.log
16:47:34 INFO:    Prev:   Default: 
16:47:34 INFO: Gurobi Optimizer version 9.1.2 build v9.1.2rc0 (win64)
16:47:34 INFO: Thread count: 4 physical cores, 8 logical processors, using up to 8 threads
16:47:34 INFO: Optimize a model with 9 rows, 19 columns and 42 nonzeros
16:47:34 INFO: Model fingerprint: 0x93b5510f
16:47:34 INFO: Variable types: 1 continuous, 18 integer (0 binary)
16:47:34 INFO: Coefficient statistics:
16:47:34 INFO:   Matrix range     [1e+00, 2e+01]
16:47:34 INFO:   Objective range  [1e+00, 1e+00]
16:47:34 INFO:   Bounds range     [0e+00, 0e+00]
16:47:34 INFO:   RHS range        [8e+02, 8e+02]
16:47:34 INFO: Found heuristic solution: objective -0.0000000
16:47:34 INFO: Presolve time: 0.00s
16:47:34 INFO: Presolved: 9 rows, 19 columns, 42 nonzeros
16:47:34 INFO: Variable types: 1 continuous, 18 integer (0 binary)
16:47:34 INFO: 
16:47:34 INFO: Root relaxation: objective 1.362335e+00, 13 iterations, 0.00 seconds
16:47:34 INFO: 
16:47:34 INFO:     Nodes    |    Current Node    |     Objective Bounds      |     Work
16:47:34 INFO:  Expl Unexpl |  Obj  Depth IntInf | Incumbent    BestBd   Gap | It/Node Time
16:47:34 INFO: 
16:47:34 INFO:      0     0    1.36233    0    8   -0.00000    1.36233      -     -    0s
16:47:34 INFO: H    0     0                       1.2142857    1.36233  12.2%     -    0s
16:47:34 INFO: H    0     0                       1.2272727    1.36233  11.0%     -    0s
16:47:34 INFO: H    0     0                       1.2857143    1.36233  5.96%     -    0s
16:47:34 INFO: H    0     0                       1.3000000    1.34847  3.73%     -    0s
16:47:34 INFO:      0     0    1.34847    0    8    1.30000    1.34847  3.73%     -    0s
16:47:34 INFO: H    0     0                       1.3043478    1.34847  3.38%     -    0s
16:47:34 INFO:      0     0    1.34175    0    8    1.30435    1.34175  2.87%     -    0s
16:47:34 INFO: H    0     0                       1.3181818    1.34175  1.79%     -    0s
16:47:34 INFO:      0     0    1.33912    0    8    1.31818    1.33912  1.59%     -    0s
16:47:34 INFO:      0     0    1.33912    0    8    1.31818    1.33912  1.59%     -    0s
16:47:34 INFO:      0     0    1.33912    0    7    1.31818    1.33912  1.59%     -    0s
16:47:34 INFO:      0     2    1.33912    0    7    1.31818    1.33912  1.59%     -    0s
16:47:34 INFO: 
16:47:34 INFO: Cutting planes:
16:47:34 INFO:   Gomory: 2
16:47:34 INFO:   MIR: 13
16:47:34 INFO:   StrongCG: 1
16:47:34 INFO:   Inf proof: 1
16:47:34 INFO: 
16:47:34 INFO: Explored 6400 nodes (9045 simplex iterations) in 0.13 seconds
16:47:34 INFO: Thread count was 8 (of 8 available processors)
16:47:34 INFO: 
16:47:34 INFO: Solution count 7: 1.31818 1.30435 1.3 ... -0
16:47:34 INFO: 
16:47:34 INFO: Optimal solution found (tolerance 1.00e-03)
16:47:34 INFO: Best objective 1.318181818182e+00, best bound 1.318181818182e+00, gap 0.0000%
16:47:34 INFO: SimpleTruckLoadingProblem
16:47:34 INFO: Changed value of parameter MIPgap to 0.001
16:47:34 INFO:    Prev: 0.0001  Min: 0.0  Max: inf  Default: 0.0001
16:47:34 INFO: Changed value of parameter TimeLimit to 5.0
16:47:34 INFO:    Prev: inf  Min: 0.0  Max: inf  Default: inf
16:47:34 INFO: Parameter OutputFlag unchanged
16:47:34 INFO:    Value: 1  Min: 0  Max: 1  Default: 1
16:47:34 INFO: Changed value of parameter LogFile to ./logs/gurobi.log
16:47:34 INFO:    Prev:   Default: 
16:47:34 INFO: Gurobi Optimizer version 9.1.2 build v9.1.2rc0 (win64)
16:47:34 INFO: Thread count: 4 physical cores, 8 logical processors, using up to 8 threads
16:47:34 INFO: Optimize a model with 9 rows, 19 columns and 42 nonzeros
16:47:34 INFO: Model fingerprint: 0x53558dec
16:47:34 INFO: Variable types: 1 continuous, 18 integer (0 binary)
16:47:34 INFO: Coefficient statistics:
16:47:34 INFO:   Matrix range     [1e+00, 4e+01]
16:47:34 INFO:   Objective range  [1e+00, 1e+00]
16:47:34 INFO:   Bounds range     [0e+00, 0e+00]
16:47:34 INFO:   RHS range        [8e+02, 8e+02]
16:47:34 INFO: Found heuristic solution: objective -0.0000000
16:47:34 INFO: Presolve time: 0.00s
16:47:34 INFO: Presolved: 9 rows, 19 columns, 42 nonzeros
16:47:34 INFO: Variable types: 1 continuous, 18 integer (0 binary)
16:47:34 INFO: 
16:47:34 INFO: Root relaxation: objective 1.348229e+00, 15 iterations, 0.00 seconds
16:47:34 INFO: 
16:47:34 INFO:     Nodes    |    Current Node    |     Objective Bounds      |     Work
16:47:34 INFO:  Expl Unexpl |  Obj  Depth IntInf | Incumbent    BestBd   Gap | It/Node Time
16:47:34 INFO: 
16:47:34 INFO:      0     0    1.34823    0    8   -0.00000    1.34823      -     -    0s
16:47:34 INFO: H    0     0                       1.0000000    1.34823  34.8%     -    0s
16:47:34 INFO: H    0     0                       1.3125000    1.34823  2.72%     -    0s
16:47:34 INFO:      0     0    1.33182    0    9    1.31250    1.33182  1.47%     -    0s
16:47:34 INFO:      0     0    1.32937    0    8    1.31250    1.32937  1.29%     -    0s
16:47:34 INFO:      0     0    1.32937    0    8    1.31250    1.32937  1.29%     -    0s
16:47:34 INFO:      0     0    1.32937    0   10    1.31250    1.32937  1.29%     -    0s
16:47:34 INFO:      0     0    1.32685    0   11    1.31250    1.32685  1.09%     -    0s
16:47:34 INFO:      0     0    1.32655    0   12    1.31250    1.32655  1.07%     -    0s
16:47:34 INFO:      0     2    1.32655    0    8    1.31250    1.32655  1.07%     -    0s
16:47:34 INFO: H   57    32                       1.3125000    1.32655  1.07%   1.7    0s
16:47:34 INFO: *  323   119              18       1.3125000    1.32655  1.07%   1.3    0s
16:47:34 INFO: 
16:47:34 INFO: Cutting planes:
16:47:34 INFO:   Gomory: 5
16:47:34 INFO:   MIR: 12
16:47:34 INFO:   StrongCG: 1
16:47:34 INFO:   Inf proof: 1
16:47:34 INFO:   Zero half: 2
16:47:34 INFO:   Mod-K: 1
16:47:34 INFO: 
16:47:34 INFO: Explored 3536 nodes (4936 simplex iterations) in 0.15 seconds
16:47:34 INFO: Thread count was 8 (of 8 available processors)
16:47:34 INFO: 
16:47:34 INFO: Solution count 5: 1.3125 1.3125 1.3125 ... -0
16:47:34 INFO: 
16:47:34 INFO: Optimal solution found (tolerance 1.00e-03)
16:47:34 INFO: Best objective 1.312500020097e+00, best bound 1.312500020097e+00, gap 0.0000%
